c --- [ banner ] -------------------------------------------------------------
c 
c CaDiCaL Radically Simplified CDCL SAT Solver
c Copyright (c) 2016-2021 A. Biere, M. Fleury, N. Froleyks
c 
c Version 1.5.2 a5f15211db36c3956764e18194dd5bd63bf3b5e6
c g++ (GCC) 9.3.0 -Wall -Wextra -O3 -DNDEBUG
c Fri Oct 21 01:27:37 EDT 2022 Linux gra-login3 3.10.0-1160.66.1.el7.x86_64 x86_64
c 
c --- [ limit ] --------------------------------------------------------------
c 
c setting conflict limit to 200000 conflicts (due to '200000')
c 
c --- [ parsing input ] ------------------------------------------------------
c 
c reading DIMACS file from '33.cubes595.adj'
c opening file to read '33.cubes595.adj'
c found 'p cnf 6160 1595474' header
c parsed 1595474 clauses in 19.12 seconds process time
c closing file '33.cubes595.adj'
c after reading 1457566765 bytes 1390.0 MB
c 
c --- [ options ] ------------------------------------------------------------
c 
c all options are set to their default value
c 
c --- [ solving ] ------------------------------------------------------------
c 
c time measured in process time since initialization
c 
c  seconds    reductions  redundant   irredundant
c          MB     restarts       trail       variables
c            level   conflicts       glue         remaining
c 
c * 19.12 1359  0 0   0    0    0  0% 0 1595422 2390 39%
c { 21.29 1445  0 0   0    0    0  0% 0 1595422 2390 39%
c i 24.69 1490 367 0   6   57   41 31% 13 1595422 2389 39%
c i 26.16 1498 187 0  13  131   99 27% 16 1595422 2388 39%
c i 26.40 1499 187 0  15  136  103 27% 16 1595422 2387 39%
c i 26.53 1499 186 0  16  142  107 27% 17 1595422 2385 39%
c i 26.59 1499 184 0  17  146  110 27% 18 1595422 2384 39%
c i 26.70 1500 181 0  19  152  115 27% 19 1595422 2383 39%
c i 26.72 1500 179 0  19  156  116 27% 19 1595422 2382 39%
c i 27.09 1501 173 0  23  171  127 27% 20 1595422 2381 39%
c i 27.09 1501 173 0  23  172  127 27% 20 1595422 2380 39%
c i 27.31 1501 167 0  25  180  133 27% 21 1595422 2379 39%
c i 27.50 1502 166 0  26  182  134 27% 21 1595422 2378 39%
c i 27.68 1503 157 0  30  194  145 28% 21 1595422 2377 39%
c i 27.72 1503 156 0  30  195  145 28% 21 1595422 2376 39%
c i 27.73 1503 155 0  31  197  146 28% 21 1595422 2375 39%
c i 27.81 1503 152 0  32  201  148 28% 21 1595422 2374 39%
c i 28.21 1504 148 0  36  215  160 28% 22 1595422 2373 39%
c i 28.38 1504 146 0  39  226  170 28% 24 1595422 2372 39%
c i 28.40 1504 145 0  40  230  171 28% 24 1595422 2369 38%
c 
c  seconds     reductions  redundant    irredundant
c          MB      restarts       trail        variables
c             level   conflicts       glue          remaining
c 
c i 28.59 1504 143 0  44  247  181 27% 23 1595422 2368 38%
c i 28.83 1504 140 0  46  254  187 27% 23 1595422 2367 38%
c i 28.87 1504 139 0  47  257  189 27% 24 1595422 2366 38%
c i 28.88 1504 138 0  48  259  190 27% 24 1595422 2365 38%
c i 28.89 1504 138 0  48  260  190 27% 24 1595422 2364 38%
c i 28.89 1504 137 0  49  261  190 27% 23 1595422 2363 38%
c i 28.89 1504 136 0  49  262  190 27% 23 1595422 2362 38%
c i 28.89 1504 135 0  49  264  191 27% 23 1595422 2361 38%
c i 29.04 1504 135 0  49  275  200 27% 22 1595422 2360 38%
c i 29.28 1504 133 0  49  295  218 27% 22 1595422 2359 38%
c - 33.27 1467 132 1  49  302  224 27% 22 428177 2359 38%
c i 33.48 1427 113 1  49  367  265 26% 19 428177 2350 38%
c i 33.48 1427 113 1  49  368  265 26% 19 428177 2349 38%
c i 33.48 1427 112 1  49  369  265 26% 19 428177 2348 38%
c i 33.51 1427 104 1  49  404  289 25% 18 428177 2347 38%
c i 34.24 1427 104 1  50  439  320 25% 19 428177 2346 38%
c i 34.29 1427 104 1  50  440  320 25% 19 428177 2345 38%
c i 34.73 1427 101 1  56  464  342 26% 19 428177 2344 38%
c i 35.07 1427 96 1  60  494  367 26% 19 428177 2343 38%
c i 35.13 1427 92 1  60  516  378 26% 19 428177 2342 38%
c 
c  seconds    reductions  redundant   irredundant
c          MB     restarts       trail       variables
c            level   conflicts       glue         remaining
c 
c i 35.14 1427 92 1  60  520  381 26% 18 428177 2341 38%
c i 35.14 1427 91 1  60  523  383 26% 18 428177 2340 38%
c i 35.14 1427 90 1  60  528  384 26% 18 428177 2339 38%
c i 35.15 1427 90 1  60  530  384 26% 18 428177 2338 38%
c i 36.16 1428 90 1  68  578  426 26% 20 428177 2337 38%
c i 37.23 1429 89 1  77  612  457 27% 20 428177 2336 38%
c i 37.43 1430 88 1  79  620  464 27% 20 428177 2335 38%
c i 37.47 1430 88 1  80  621  464 27% 20 428177 2334 38%
c i 37.47 1430 88 1  80  623  465 27% 20 428177 2333 38%
c i 37.58 1430 87 1  82  629  470 27% 20 428177 2332 38%
c i 37.61 1430 87 1  83  632  472 27% 20 428177 2313 38%
c i 38.28 1430 85 1  95  683  515 27% 21 428177 2312 38%
c i 38.52 1431 83 1 100  708  535 27% 21 428177 2311 38%
c i 38.56 1431 83 1 100  713  538 27% 21 428177 2310 38%
c i 38.74 1431 82 1 103  729  553 27% 21 428177 2298 37%
c i 38.88 1431 81 1 108  745  565 27% 21 428177 2297 37%
c i 38.93 1431 81 1 108  746  565 27% 21 428177 2296 37%
c i 38.93 1431 81 1 109  749  567 27% 21 428177 2295 37%
c i 38.94 1431 81 1 110  752  569 27% 21 428177 2294 37%
c i 39.50 1431 79 1 113  776  588 27% 21 428177 2293 37%
c 
c  seconds    reductions  redundant   irredundant
c          MB     restarts       trail       variables
c            level   conflicts       glue         remaining
c 
c i 39.59 1431 79 1 113  782  593 27% 21 428177 2292 37%
c i 39.67 1431 78 1 113  789  599 27% 21 428177 2291 37%
c i 39.72 1431 78 1 113  790  599 27% 21 428177 2290 37%
c i 39.78 1431 78 1 114  800  608 27% 21 428177 2289 37%
c i 40.08 1432 77 1 119  823  629 27% 21 428177 2288 37%
c i 40.32 1431 78 1 119  841  645 27% 21 428177 2287 37%
c i 40.43 1431 78 1 121  847  650 27% 21 428177 2286 37%
c i 40.52 1432 77 1 122  855  656 27% 21 428177 2285 37%
c i 40.62 1432 77 1 123  865  665 27% 21 428177 2284 37%
c i 41.43 1432 78 1 135  924  711 27% 23 428177 2283 37%
c i 41.91 1432 76 1 148  980  740 27% 23 428177 2282 37%
c i 41.91 1432 76 1 148  981  740 27% 23 428177 2281 37%
c i 41.91 1432 76 1 149  984  742 27% 23 428177 2280 37%
c i 41.97 1432 76 1 149  987  744 27% 23 428177 2279 37%
c i 42.26 1432 76 1 152 1000  755 27% 23 428177 2278 37%
c } 42.26 1432 76 1 152 1000  755 27% 23 428177 2278 37%
c [ 42.26 1432  0 1 152 1000  755  0% 0 428177 2278 37%
c O 42.30 1432  6 1 152 1004  757 16% 6 428177 2278 37%
c i 42.65 1432 16 1 152 1030  781 31% 12 428177 2277 37%
c i 42.83 1432 15 1 152 1083  810 32% 13 428177 2276 37%
c 
c  seconds    reductions  redundant   irredundant
c          MB     restarts       trail       variables
c            level   conflicts       glue         remaining
c 
c i 42.84 1432 15 1 152 1085  811 32% 13 428177 2275 37%
c i 42.91 1432 14 1 152 1108  818 32% 13 428177 2274 37%
c i 42.94 1432 15 1 152 1130  831 31% 13 428177 2273 37%
c i 42.96 1432 15 1 152 1141  836 31% 13 428177 2272 37%
c i 42.96 1432 15 1 152 1142  836 31% 13 428177 2271 37%
c i 42.99 1432 15 1 152 1149  842 31% 13 428177 2270 37%
c i 43.00 1432 15 1 152 1160  846 31% 13 428177 2269 37%
c i 43.04 1432 16 1 152 1194  864 31% 14 428177 2268 37%
c i 43.05 1432 16 1 152 1202  869 31% 14 428177 2267 37%
c i 43.06 1432 16 1 152 1215  876 31% 14 428177 2266 37%
c i 43.06 1432 15 1 152 1221  877 31% 14 428177 2265 37%
c i 43.06 1432 15 1 152 1222  877 31% 14 428177 2264 37%
c i 43.09 1432 15 1 152 1247  894 31% 14 428177 2263 37%
c i 43.14 1432 15 1 152 1280  908 31% 14 428177 2262 37%
c - 44.07 1600 15 2 152 1280  823 31% 14 427285 2262 37%
c i 44.27 1600 15 2 152 1299  835 31% 14 427285 2261 37%
c i 44.29 1600 15 2 152 1306  840 31% 14 427285 2260 37%
c i 44.45 1600 15 2 152 1356  858 31% 13 427285 2259 37%
c ] 44.48 1600 15 2 152 1376  871 31% 13 427285 2259 37%
c 1 44.48 1600 15 2 152 1376  871 31% 13 427285 2259 37%
c 
c --- [ writing output ] -----------------------------------------------------
c 
c writing simplified CNF to DIMACS file 'simp/33.cubes595.adj.simp1'
c 
c  seconds    reductions  redundant   irredundant
c          MB     restarts       trail       variables
c            level   conflicts       glue         remaining
c 
c * 44.48 1600 15 2 152 1376  871 31% 13 427285 2259 37%
c opening file to write 'simp/33.cubes595.adj.simp1'
c writing 'p cnf 6160 427276' header
c closing file 'simp/33.cubes595.adj.simp1'
c after writing 188904114 bytes 180.2 MB
c wrote 427276 clauses in 1.47 seconds process time
c 
c --- [ writing extension ] --------------------------------------------------
c 
c writing extension stack to 'simp/33.cubes595.adj.ext1'
c opening file to write 'simp/33.cubes595.adj.ext1'
c closing file 'simp/33.cubes595.adj.ext1'
c after writing 11276 bytes 0.0 MB
c wrote 757 witnesses in 0.00 seconds process time
c 
c --- [ result ] -------------------------------------------------------------
c 
s SATISFIABLE
c 
c --- [ run-time profiling ] -------------------------------------------------
c 
c process time taken by individual solving procedures
c (percentage relative to process time for solving)
c 
c        25.36  100.00% search
c        20.97   82.71% unstable
c        19.12   75.42% parse
c         2.22    8.75% stable
c         2.16    8.53% lucky
c         0.00    0.00% simplify
c   =================================
c        25.36   55.18% solve
c 
c last line shows process time for solving
c (percentage relative to total process time)
c 
c --- [ statistics ] ---------------------------------------------------------
c 
c chronological:               489        35.54 %  of conflicts
c conflicts:                  1376        54.27    per second
c decisions:                 22401       883.48    per second
c fixed:                       757        12.29 %  of all variables
c learned:                    1329        96.58 %  per conflict
c learned_lits:             157904       100.00 %  learned literals
c minimized:                     0         0.00 %  learned literals
c shrunken:                  90816        57.51 %  learned literals
c minishrunken:               8910         5.64 %  learned literals
c propagations:             300306         0.01 M  per second
c reduced:                      82         5.96 %  per conflict
c rephased:                      1      1376.00    interval
c restarts:                    152         9.05    interval
c stabilizing:                   1        27.33 %  of conflicts
c subsumed:                    279         0.01 %  of all clauses
c 
c seconds are measured in process time for solving
c 
c --- [ resources ] ----------------------------------------------------------
c 
c total process time since initialization:        45.95    seconds
c total real time since initialization:           46.96    seconds
c maximum resident set size of process:         1599.84    MB
c 
c --- [ shutting down ] ------------------------------------------------------
c 
c exit 10
WARNING! DIMACS header mismatch: wrong number of variables.
============================[ Problem Statistics ]=============================
|                                                                             |
|  Number of variables:          6120                                         |
|  Number of clauses:          427276                                         |
|  Parse time:                   2.56 s                                       |
|  Simplification time:          0.06 s                                       |
|                                                                             |
============================[ Search Statistics ]====================================================
| Conflicts |          ORIGINAL         |          LEARNT          | Num Sols |      SUBGRAPHS      |
|           |    Vars  Clauses Literals |    Limit  Clauses Lit/Cl |          | Canonical Noncanon. |
=====================================================================================================
|       100 |    6023   427276 41503305 |     2000       95     96 |        0 |        17         0 |
|       252 |    6020   427278 41503343 |     2000      244     79 |        0 |        32         2 |
|       479 |    6013   427280 41503460 |     2000      464     78 |        0 |        40         4 |
|      1379 |    6011   427843 41511678 |     2000     1362     38 |        0 |       284       567 |
|      3450 |    6007   429408 41533733 |     3596     2442     16 |        0 |       621      2132 |
|      4942 |    5998   430141 41545205 |     4992     2133     12 |        0 |       854      2865 |
|      7337 |    5990   431397 41565599 |     4992     4520     25 |        0 |      1102      4121 |
|     10312 |    5989   432664 41589202 |     6299     5010     28 |        0 |      1425      5388 |
|     14103 |    5986   433893 41610064 |     7552     5653     33 |        0 |      1760      6617 |
|     28158 |    5984   444104 41758017 |    11200     6558     13 |        0 |      2998     16828 |
|     43518 |    5984   453698 41885874 |    13604    10122     11 |        0 |      4154     26422 |
|     61603 |    5983   463134 42007803 |    16013    14016     34 |        0 |      5440     35858 |
|     85446 |    5983   474003 42140107 |    19611    12057     19 |        0 |      6757     46727 |
=====================================================================================================
Number of solutions   : 0
Canonical subgraphs   : 7290           (113 /sec)
          order  3    : 1              (166667 /sec)
          order  4    : 1              (500000 /sec)
          order  5    : 1              (250000 /sec)
          order  6    : 1              (55556 /sec)
          order  7    : 2              (10526 /sec)
          order  8    : 6              (2619 /sec)
          order  9    : 16             (617 /sec)
          order 10    : 81             (222 /sec)
          order 11    : 493            (167 /sec)
          order 12    : 3286           (158 /sec)
          order 13    : 1195           (142 /sec)
          order 14    : 861            (100 /sec)
          order 15    : 596            (72 /sec)
          order 16    : 357            (52 /sec)
          order 17    : 243            (48 /sec)
          order 18    : 108            (50 /sec)
          order 19    : 32             (51 /sec)
          order 20    : 6              (60 /sec)
          order 21    : 4              (62 /sec)
          order 22    : 0              (-nan /sec)
Noncanonical subgraphs: 49688          (906 /sec)
          order  3    : 0              (-nan /sec)
          order  4    : 0              (-nan /sec)
          order  5    : 0              (-nan /sec)
          order  6    : 0              (-nan /sec)
          order  7    : 0              (-nan /sec)
          order  8    : 0              (-nan /sec)
          order  9    : 0              (-nan /sec)
          order 10    : 0              (-nan /sec)
          order 11    : 0              (-nan /sec)
          order 12    : 0              (-nan /sec)
          order 13    : 42541          (940 /sec)
          order 14    : 5233           (1084 /sec)
          order 15    : 789            (974 /sec)
          order 16    : 1115           (289 /sec)
          order 17    : 5              (200 /sec)
          order 18    : 0              (-nan /sec)
          order 19    : 1              (2137 /sec)
          order 20    : 0              (-nan /sec)
          order 21    : 0              (-nan /sec)
Canonicity checking   : 64.5416 s
Noncanonicity checking: 54.8259 s
Total canonicity time : 119.368 s
database reductions   : 15
restarts              : 255
conflicts             : 93819          (419 /sec)
decisions             : 190145         (0.00 % random) (850 /sec)
propagations          : 10534689       (47077 /sec)
conflict literals     : 3744328        (52.05 % deleted)
actual reward         : 0.071305
Memory used           : 251.00 MB
CPU time              : 223.776 s

UNSATISFIABLE
